NAME: random_points
TYPE: TSP
DIMENSION: 50
EDGE_WEIGHT_TYPE: EUC_2D
NODE_COORD_SECTION
1 741 224
2 894 907
3 704 874
4 902 202
5 494 597
6 321 185
7 565 340
8 158 302
9 825 4
10 304 1000
11 536 896
12 212 511
13 381 767
14 200 173
15 106 137
16 479 453
17 467 322
18 52 312
19 28 149
20 930 61
21 507 344
22 414 831
23 362 859
24 106 804
25 921 649
26 780 68
27 499 806
28 594 786
29 111 323
30 628 357
31 158 831
32 592 872
33 906 5
34 956 485
35 121 851
36 261 397
37 887 198
38 892 523
39 733 717
40 374 949
41 856 298
42 514 457
43 953 713
44 806 396
45 127 31
46 967 742
47 16 590
48 315 527
49 644 239
50 208 575
EOF
